# ------------------------ INITIALIZATION ----------------------------
units 		metal
dimension	3
boundary	p	p	p
atom_style	atomic

# ----------------------- ATOM DEFINITION ----------------------------
box tilt large
read_data   /home/kacper/praca_inzynierska/lattice_structure/Bi2O3_1526458/cif_file.data
region		whole block 0 10 0 10 0 10
replicate 3 3 3

mass 1 208.98038 #bizmut
mass 2 47.88 #tlen

# ----------------------- FORCE FIELDS -------------------------------
pair_style table linear 50000

pair_coeff 1 1 BiBi.table BiBi
pair_coeff 2 2 OO.table OO
pair_coeff 1 2 BiO.table BiO

# ------------------------- SETTINGS ---------------------------------
#set timestep
reset_timestep	0
timestep 0.001

#set temperature 300K random seed
velocity all create 300 123456

# ------------------------- 1 step heat up------------------------------------
#Fixes
fix 1 all npt temp 300.0 3000.0 0.01 iso 0 0 5 drag 1

#set thermo output
thermo 100 #step to print thermo output
thermo_style custom step lx ly lz press pxx pyy pzz pe temp

dump myDump all atom 100 dump.atom
run     1000

unfix 1

# ------------------------- 2 step freeze------------------------------------
#Fixes
fix 1 all npt temp 3000.0 3.0 0.01 iso 0 0 5 drag 1

#set thermo output
thermo 100 #step to print thermo output
thermo_style custom step lx ly lz press pxx pyy pzz pe temp

run     2000

unfix 1

# ------------------------- 3 step stay------------------------------------
#Fixes
fix 1 all npt temp 3.0 3.0 0.01 iso 0 0 5 drag 1

#set thermo output
thermo 100 #step to print thermo output
thermo_style custom step lx ly lz press pxx pyy pzz pe temp

run     1000

unfix 1